# sample LAMMPS input script for viscosity of 3d LJ liquid
# use tethered shearing wall, thermostat via fix langevin

#This is needed for bulk runs to allow job sizing 
processors 1 1 1

#System parameters
variable	rho equal 0.8442
variable    T equal 1.0
variable	rc equal 1.122462
variable	srate equal 0.00025

# Domain size and walls
variable	x equal 30
variable	y equal 5.2
variable	z equal 30
variable    wallwidth equal 0.8

# Set outside of domain to be wall
variable	ylo equal -${wallwidth}
variable	yhi equal ${y}+${wallwidth}

#Thermostatted region wall
variable	ythemlo equal ${ylo}
variable	ythemhi equal ${yhi}

#Add a buffer of empty space to prevent molecules moving too far they leave the domain
variable	buf equal 2.0
variable	ylobuf equal ${ylo}-${buf}
variable	yhibuf equal ${yhi}+${buf}

#types  fluidtype 1 lowertype 2 uppertype 3 lowersitetype 4 uppersitetype 5

#Basic simulation setup
units		    lj
dimension	    3
atom_style      full 
neigh_modify	delay 0 every 1
boundary		p f p

pair_style      lj/cut ${rc}
bond_style      harmonic
read_data       branch300.dat   #output_equil.dat
region		    latticeregion block INF INF ${ylo} ${yhi} INF INF units box


#Set wall region
region		    lower block INF INF ${ylo} 0.0 INF INF units box
region		    upper block INF INF ${y} ${yhi} INF INF units box
group		    lower type 2
group		    upper type 3
group		    wall union lower upper

#Set thermostatting region
region		    lowertherm block INF INF ${ylo} 0.0 INF INF units box
region		    uppertherm block INF INF ${y} ${yhi} INF INF units box
group		    lowertherm type 2
group		    uppertherm type 3
group           nottherm subtract all lowertherm uppertherm


group		    lowersites type 4
group		    uppersites type 5
group		    sites union lowersites uppersites

group		    wallandsites_lower union lowersites lower
group		    wallandsites_upper union uppersites upper
group		    wallandsites union sites wall

#Set wall sliding
velocity	    uppersites set ${srate} 0.0 0.0 units box
velocity	    lowersites set -${srate} 0.0 0.0 units box

#Get liquid molecules to a flow group
group		    flow subtract all wall sites
compute		    temperatureupper all temp/partial 0 1 1
compute		    temperaturelower all temp/partial 0 1 1

fix             1 flow nve
fix             2 uppertherm nvt temp $T $T $(100.0*dt)
fix             3 lowertherm nvt temp $T $T $(100.0*dt)
fix_modify      2 temp temperatureupper
fix_modify      3 temp temperaturelower

#Set wall sites to not interact with anything but
#allow then to move so wall speed "srate" is applied
fix		        4 uppersites setforce 0.0 0.0 0.0
fix		        5 lowersites setforce 0.0 0.0 0.0
fix             6 uppersites nve
fix             7 lowersites nve

# MOP stress
compute         MOP_lower all stress/mop y 0.5 conf
compute         MOP_center all stress/mop y 2.6 conf
compute         MOP_upper all stress/mop y 4.5 conf

# Getting wall fluid interactions should give the same as the configurational
# MOP plane between wall/liquid (and kinetic should be zero)
compute         fij_upper flow group/group upper pair yes
compute         fij_lower flow group/group lower pair yes


compute fx_upper wallandsites_upper bond/local fx
compute sumfx_upper all reduce sum c_fx_upper
compute fx_lower wallandsites_lower bond/local fx
compute sumfx_lower all reduce sum c_fx_lower


variable 	step equal step
variable 	temp equal temp

#Shear Components
variable	MOP_lower equal c_MOP_lower[1]
variable	MOP_center equal c_MOP_center[1]
variable	MOP_upper equal c_MOP_upper[1]
variable	pxy equal pxy
variable	fij_lower equal c_fij_lower[1]
variable	fij_upper equal c_fij_upper[1]

#Dissipation function
variable	sumfx_lower equal c_sumfx_lower
variable	sumfx_upper equal c_sumfx_upper

#Direct components
variable	MOP_d_lower equal c_MOP_lower[2]
variable	MOP_d_center equal c_MOP_center[2]
variable	MOP_d_upper equal c_MOP_upper[2]
variable	pyy equal pyy
variable	fij_d_lower equal c_fij_lower[2]
variable	fij_d_upper equal c_fij_upper[2]

#Then run for child trajectory
fix		8 all print 1 "${step} ${temp} ${MOP_lower} ${MOP_center} ${MOP_upper} ${pxy} ${fij_lower} ${fij_upper} ${sumfx_lower} ${sumfx_upper} ${MOP_d_lower} ${MOP_d_center} ${MOP_d_upper} ${pyy} ${fij_d_lower} ${fij_d_upper}" file output.txt screen no 
run	           2000

