# sample LAMMPS input script for viscosity of 3d LJ liquid
# use tethered shearing wall, thermostat via fix langevin

#This is needed for bulk  run 100000
processors 1 1 1

#System parameters
variable	rho equal 0.8442
variable    T equal 1.0
variable	rc equal 1.122462
variable	srate equal 0.0

# Domain size and walls
variable	x equal 5
variable	y equal 5
variable	z equal 5
variable    wallwidth equal 0.3

# Set outside of domain to be wall
variable	ylo equal -${wallwidth}
variable	yhi equal ${y}+${wallwidth}

#Thermostatted region outer half of wall
variable	ythemlo equal ${ylo}
variable	ythemhi equal ${yhi}

#Add a buffer of empty space to prevent molecules moving too far they leave the domain
variable	buf equal 2.0
variable	ylobuf equal ${ylo}-${buf}
variable	yhibuf equal ${yhi}+${buf}

#types  fluidtype 1 lowertype 2 uppertype 3 lowersitetype 4 uppersitetype 5

#Basic simulation setup
units		    lj
dimension	    3
atom_style      full 
neigh_modify	delay 0 every 1
boundary		p f p

pair_style      lj/cut ${rc}
bond_style      harmonic

read_data       final_mother.dat
region		    latticeregion block INF INF ${ylo} ${yhi} INF INF


#Set wall region
region		    lower block INF INF ${ylo} 0.0 INF INF
region		    upper block INF INF ${y} ${yhi} INF INF
group		    lower type 2
group		    upper type 3
group		    wall union lower upper

#Set thermostatting region
region		    lowertherm block INF INF ${ylo} 0.0 INF INF
region		    uppertherm block INF INF ${y} ${yhi} INF INF
group		    lowertherm type 2
group		    uppertherm type 3
group           nottherm subtract all lowertherm uppertherm


group		    lowersites type 4
group		    uppersites type 5
group		    sites union lowersites uppersites

#Set wall sliding
velocity	    uppersites set ${srate} 0.0 0.0 units box
velocity	    lowersites set -${srate} 0.0 0.0 units box

#Get liquid molecules to a flow group
group		    flow subtract all wall sites

fix             1 flow nve
fix             2 uppertherm nvt temp $T $T $(100.0*dt)
fix             3 lowertherm nvt temp $T $T $(100.0*dt)

compute		    temperatureupper all temp/partial 0 1 1
compute		    temperaturelower all temp/partial 0 1 1
fix_modify      2 temp temperatureupper
fix_modify      3 temp temperaturelower

fix		        4 uppersites setforce 0.0 0.0 0.0
fix		        5 lowersites setforce 0.0 0.0 0.0

thermo          1000
thermo_style	custom step temp epair etotal press pxy

#Steps between output for child trajectory
variable Ninloop equal   300

# Dissipation function (bond force part)
compute         thether_lower lowersites group/group lower molecule intra
compute         thether_upper uppersites group/group upper molecule intra
variable 	    step equal step
variable	    dissipation_lower equal c_thether_lower[1]
variable	    dissipation_upper equal c_thether_upper[1]
fix		        6 all print 1 "${step} ${dissipation_lower} ${dissipation_upper}" file disp.dat screen no 

#Loop over lots of input cases
label loop
variable index loop   80

    run   ${Ninloop}
    write_data    branch*.dat
    
next index
jump SELF loop

write_data final_mother.dat
