processors 2 2 1

units		    lj
dimension	    3
atom_style      full 
neigh_modify	delay 0 every 1
boundary		p f p

include ./sim_params.lmp

timestep ${Integration_step}

variable    frac  equal 1-${rho_f}/${rho_w} 


variable rlatt equal (4.0/${rho_w})^(1.0/3)

variable totlayers equal ceil(2*${chwidth}/${rlatt})+2*${wlayers}

variable    Lx equal ceil(${L}/${rlatt})
variable    Lz equal ceil(${L}/${rlatt})
variable    Ly equal (${totlayers}-1)/2
variable    outbuff equal 2
variable    Kstiff equal 0.5*${Kspring}

variable	ymin equal -${outbuff}
variable	ymax equal ${Ly}+${outbuff}

variable lowwall equal -1.0/4
variable wallwidth equal (${wlayers}-1.0)/2+1.0/2
variable upwall equal ${Ly}+1.0/4
variable lowinterface equal ${lowwall}+${wallwidth}
variable upinterface equal ${upwall}-${wallwidth}

variable rlowinterface equal ${lowinterface}*${rlatt}
variable rupinterface equal ${upinterface}*${rlatt}

lattice         fcc ${rho_w}
region          simbox block 0 ${Lx} ${ymin} ${ymax} 0 ${Lz} units lattice
create_box      5 simbox bond/types 1 extra/bond/per/atom 1
region		    latticeregion block INF INF 0 ${Ly} INF INF units lattice
region		    lower block INF INF ${lowwall} ${lowinterface} INF INF units lattice
region		    upper block INF INF ${upinterface} ${upwall} INF INF units lattice

region		    lowertherm block INF INF ${lowwall} ${lowinterface} INF INF units lattice
region		    uppertherm block INF INF ${upinterface} ${upwall} INF INF units lattice

region		    fluidregion block INF INF ${lowinterface} ${upinterface} INF INF units lattice

create_atoms    1 region latticeregion

group           tempfluid region fluidregion

group           lower region lower
group           upper region upper

set             group lower type 2
set	            group upper type 3

group		    lowertherm type 2
group		    uppertherm type 3

delete_atoms    region fluidregion


lattice         fcc ${rho_w}
create_atoms    2 region latticeregion


group           tempupwall region upper
group           templowwall region lower

group           lowersites subtract templowwall lower 
group           uppersites subtract tempupwall upper   

set             group lowersites type 4
set	            group uppersites type 5


group           flow region fluidregion
set             group flow type 1


variable epswf equal ${wf_param}^2
variable sigmawf equal 1.0/${wf_param}^(1.0/6)

variable epsff equal ${ff_param}^2
variable sigmaff equal 1.0/${ff_param}^(1.0/6)

mass            * 1.0
pair_style      lj/cut ${rc}

pair_coeff       1 1 ${epsff} ${sigmaff}
pair_coeff       1 2 ${epswf} ${sigmawf}
pair_coeff       1 3 ${epswf} ${sigmawf}
pair_coeff       1 4 0.0      0.0
pair_coeff       1 5 0.0      0.0

pair_coeff       2 2 1.0      1.0
pair_coeff       2 3 1.0      1.0
pair_coeff       2 4 0.0      0.0
pair_coeff       2 5 0.0      0.0

pair_coeff       3 3 1.0      1.0
pair_coeff       3 4 0.0      0.0
pair_coeff       3 5 0.0      0.0

pair_coeff       4 4 0.0 0.0
pair_coeff       4 5 0.0 0.0

pair_coeff       5 5 0.0 0.0

#delete_atoms    porosity fluidregion ${frac} ${rseed} 
delete_atoms random fraction ${frac} yes flow fluidregion ${rseed} 

reset_ids 
#reset_atom_ids

group		    wall union lower upper


group           sys  union flow wall





velocity	    uppersites set 0.0 0.0 0.0 units box
velocity	    lowersites set 0.0 0.0 0.0 units box



bond_style       harmonic
bond_coeff       1 ${Kstiff} 0.0
create_bonds     many lowersites lower 1 0.0 0.0001
create_bonds     many uppersites upper 1 0.0 0.0001

velocity        sys create $T ${rseed}


compute		    temperatureupper upper temp/partial 0 1 1
compute		    temperaturelower lower temp/partial 0 1 1

fix             1 flow nve

fix             2 upper nvt temp $T $T ${Thermo_damp}
fix             3 lower nvt temp $T $T ${Thermo_damp}
fix_modify      2 temp temperatureupper
fix_modify      3 temp temperaturelower

fix		        4 uppersites setforce 0.0 0.0 0.0
fix		        5 lowersites setforce 0.0 0.0 0.0
fix             6 uppersites nve
fix             7 lowersites nve 


#dump            1 all xyz 100 vmd_out.xyz
#run 100

run   ${Nthermalization}

write_data    equil_start.dat pair ij

include ./slab.lmp
include ./vel.lmp
include ./force_equil.lmp

#Run mother equilibration
run   ${Equil_sampling}

#Run mother to get child trajectories
label loop
variable index loop   ${Nchild}

	run   ${Ninloop}
	write_data    branch${index}.dat pair ij
    
next index
jump SELF loop








