# sample LAMMPS input script for viscosity of 3d LJ liquid
# use tethered shearing wall, thermostat via fix langevin

#This is needed for bulk  run 100000
processors 1 1 1

#Basic simulation setup
units		    lj
dimension	    3
atom_style      full 
neigh_modify	delay 0 every 1
boundary		p f p


#System parameters
variable	rho equal 0.8442
variable    T equal 1.0
variable	rc equal 1.122462
variable	srate equal 0.0

# Domain size and walls
variable	x equal 5
variable	y equal 5
variable	z equal 5
variable    wallwidth equal 0.3

# Set outside of domain to be wall
variable	ylo equal -${wallwidth}
variable	yhi equal ${y}+${wallwidth}

#Thermostatted region wall
variable	ythemlo equal ${ylo}
variable	ythemhi equal ${yhi}

#Add a buffer of empty space to prevent molecules moving too far they leave the domain
variable	buf equal 2.0
variable	ylobuf equal ${ylo}-${buf}
variable	yhibuf equal ${yhi}+${buf}

#types  fluidtype 1 lowertype 2 uppertype 3 lowersitetype 4 uppersitetype 5


#Add a padded buffer at top and bottom as tethering allows molecules to wander slightly
lattice         fcc ${rho}
region          simbox block 0 $x ${ylobuf} ${yhibuf} 0 $z units box
create_box      5 simbox bond/types 1 extra/bond/per/atom 1
region		    latticeregion block INF INF ${ylo} ${yhi} INF INF units box
create_atoms    1 region latticeregion

#Create lj pair styles and set wall/site terms to zero
mass            * 1.0
pair_style      lj/cut ${rc}
pair_coeff      * * 1.0 1.0
pair_coeff      2 4 0.0 0.0
pair_coeff      3 5 0.0 0.0

#Set wall region
region		    lower block INF INF ${ylo} 0.0 INF INF units box
region		    upper block INF INF ${y} ${yhi} INF INF units box
group		    lower region lower
group		    upper region upper
set		        group lower type 2
set		        group upper type 3
group		    wall union lower upper

#Set thermostatting region
region		    lowertherm block INF INF ${ylo} 0.0 INF INF units box
region		    uppertherm block INF INF ${y} ${yhi} INF INF units box
group		    lowertherm region lowertherm
group		    uppertherm region uppertherm
group           nottherm subtract all lowertherm uppertherm

#Create a set of tethering sites (as molecules)
create_atoms    4 region lower
create_atoms    5 region upper
group		    lowersites type 4
group		    uppersites type 5
group		    sites union lowersites uppersites

#Get liquid molecules to a flow group
group		    flow subtract all wall sites

#Set imaginary site particles to not interact
bond_style       harmonic
bond_coeff       1 150.0 0.0
create_bonds     many lowersites lower 1 0.0 0.0001
create_bonds     many uppersites upper 1 0.0 0.0001

velocity        flow create $T 97287

fix             1 flow nve
fix             2 uppertherm nvt temp $T $T $(100.0*dt)
fix             3 lowertherm nvt temp $T $T $(100.0*dt)

compute		    temperatureupper all temp/partial 0 1 1
compute		    temperaturelower all temp/partial 0 1 1
fix_modify      2 temp temperatureupper
fix_modify      3 temp temperaturelower

fix		        4 uppersites setforce 0.0 0.0 0.0
fix		        5 lowersites setforce 0.0 0.0 0.0

thermo          1000
thermo_style	custom step temp epair etotal press pxy

#fix 6 all ave/chunk 5 40 1000 layers density/mass vx temp  c_stress[1] c_stress[2]  c_stress[3]  c_stress[4] file profile.wall.2d
dump            3 all dcd 10 vmd_out.dcd

#Equilibration
variable Nequil equal   10000

run   ${Nequil}
write_data output_equil.dat
write_data final_mother.dat
